\* Source Pyomo model name=unknown *\

min 
x1:
+39 x2
+14 x3
+11 x4
+14 x5
+16 x6
+82 x7
+8 x8
+27 x9
+9 x10
+12 x11
+9 x12
+26 x13
+95 x14
+17 x15
+24 x16
+14 x17
+17 x18
+13 x19
+28 x20
+99 x21
+20 x22

s.t.

c_e_x23_:
+1 x2
+1 x3
+1 x4
+1 x5
+1 x6
+1 x7
+1 x8
= 1400

c_e_x24_:
+1 x9
+1 x10
+1 x11
+1 x12
+1 x13
+1 x14
+1 x15
= 2600

c_e_x25_:
+1 x16
+1 x17
+1 x18
+1 x19
+1 x20
+1 x21
+1 x22
= 2900

c_e_x26_:
+1 x2
+1 x9
+1 x16
= 900

c_e_x27_:
+1 x3
+1 x10
+1 x17
= 1200

c_e_x28_:
+1 x4
+1 x11
+1 x18
= 600

c_e_x29_:
+1 x5
+1 x12
+1 x19
= 400

c_e_x30_:
+1 x6
+1 x13
+1 x20
= 1700

c_e_x31_:
+1 x7
+1 x14
+1 x21
= 1100

c_e_x32_:
+1 x8
+1 x15
+1 x22
= 1000

bounds
   0 <= x2 <= +inf
   0 <= x3 <= +inf
   0 <= x4 <= +inf
   0 <= x5 <= +inf
   0 <= x6 <= +inf
   0 <= x7 <= +inf
   0 <= x8 <= +inf
   0 <= x9 <= +inf
   0 <= x10 <= +inf
   0 <= x11 <= +inf
   0 <= x12 <= +inf
   0 <= x13 <= +inf
   0 <= x14 <= +inf
   0 <= x15 <= +inf
   0 <= x16 <= +inf
   0 <= x17 <= +inf
   0 <= x18 <= +inf
   0 <= x19 <= +inf
   0 <= x20 <= +inf
   0 <= x21 <= +inf
   0 <= x22 <= +inf
end
